WARNING: for repeatability, setting FPU to use double precision
============================[ Problem Statistics ]=============================
|                                                                             |
|  Number of variables:         13013                                         |
|  Number of clauses:           51664                                         |
|  Parse time:                   0.01 s                                       |
|                                                                             |
c ============================[ Search Statistics ]==============================
c | Conflicts |          ORIGINAL         |          LEARNT          | Progress |
c |           |    Vars  Clauses Literals |    Limit  Clauses Lit/Cl |          |
c ===============================================================================
We had 116 decisions of which only 0 were on extended
We had 1811654 decisions of which only 0 were on extended
We had 2281181 decisions of which only 0.00464672 were on extended
We had 2368910 decisions of which only 0.0214867 were on extended
We had 2611269 decisions of which only 0.0373765 were on extended
We had 2900177 decisions of which only 0.0491694 were on extended
c Switched to VSIDS.
We had 2942548 decisions of which only 0.0485634 were on extended
We had 2972581 decisions of which only 0.0480727 were on extended
We had 2998814 decisions of which only 0.0476522 were on extended
We had 3020742 decisions of which only 0.0473063 were on extended
c Switched to LRB.
We had 3043886 decisions of which only 0.0469466 were on extended
We had 3062963 decisions of which only 0.0466542 were on extended
We had 3080957 decisions of which only 0.0463817 were on extended
We had 3101359 decisions of which only 0.0460766 were on extended
We had 3116165 decisions of which only 0.0458576 were on extended
c Switched to VSIDS.
We had 3131252 decisions of which only 0.0456367 were on extended
We had 3154107 decisions of which only 0.045306 were on extended
We had 3175429 decisions of which only 0.0450018 were on extended
We had 3196003 decisions of which only 0.0447121 were on extended
Window full
Continue
We had 3213577 decisions of which only 0.0444676 were on extended
We had 3233265 decisions of which only 0.0441968 were on extended
c Switched to LRB.
We had 3253308 decisions of which only 0.0442012 were on extended
We had 3268732 decisions of which only 0.0439926 were on extended
We had 3283428 decisions of which only 0.0437957 were on extended
We had 3299339 decisions of which only 0.0435845 were on extended
We had 3312718 decisions of which only 0.0434085 were on extended
We had 3327260 decisions of which only 0.0432187 were on extended
c Switched to VSIDS.
We had 3342432 decisions of which only 0.0430824 were on extended
We had 3361928 decisions of which only 0.0428326 were on extended
Window full
Deactivate
We had 3378379 decisions of which only 0.042624 were on extended
We had 3392700 decisions of which only 0.0424441 were on extended
We had 3408516 decisions of which only 0.0422471 were on extended
We had 3424565 decisions of which only 0.0420491 were on extended
We had 3442202 decisions of which only 0.0418627 were on extended
c Switched to LRB.
We had 3456100 decisions of which only 0.0417812 were on extended
We had 3470939 decisions of which only 0.0416026 were on extended
We had 3484194 decisions of which only 0.0414443 were on extended
We had 3496935 decisions of which only 0.0412933 were on extended
We had 3510976 decisions of which only 0.0411282 were on extended
We had 3524645 decisions of which only 0.0409687 were on extended
c Switched to VSIDS.
We had 3536847 decisions of which only 0.0408273 were on extended
We had 3552828 decisions of which only 0.0406437 were on extended
We had 3571093 decisions of which only 0.0404358 were on extended
We had 3590013 decisions of which only 0.0402227 were on extended
We had 3607404 decisions of which only 0.0400288 were on extended
We had 3624123 decisions of which only 0.0398441 were on extended
We had 3637024 decisions of which only 0.0397028 were on extended
We had 3653703 decisions of which only 0.0395763 were on extended
We had 3667686 decisions of which only 0.0394254 were on extended
c Switched to LRB.
We had 3682611 decisions of which only 0.0394014 were on extended
We had 3696257 decisions of which only 0.0392559 were on extended
We had 3709993 decisions of which only 0.0391106 were on extended
We had 3722320 decisions of which only 0.0389811 were on extended
We had 3735075 decisions of which only 0.0388479 were on extended
We had 3747428 decisions of which only 0.0387199 were on extended
c Switched to VSIDS.
We had 3759962 decisions of which only 0.0385908 were on extended
We had 3776082 decisions of which only 0.0384261 were on extended
We had 3792329 decisions of which only 0.0382614 were on extended
We had 3807897 decisions of which only 0.038105 were on extended
We had 3822944 decisions of which only 0.037955 were on extended
We had 3835558 decisions of which only 0.0378302 were on extended
We had 3849961 decisions of which only 0.0376887 were on extended
We had 3866126 decisions of which only 0.0375311 were on extended
We had 3883054 decisions of which only 0.0373675 were on extended
c Switched to LRB.
We had 3899159 decisions of which only 0.0374953 were on extended
We had 3911994 decisions of which only 0.0373722 were on extended
We had 3923071 decisions of which only 0.0372667 were on extended
We had 3933916 decisions of which only 0.037164 were on extended
We had 3945439 decisions of which only 0.0370554 were on extended
We had 3957151 decisions of which only 0.0369458 were on extended
We had 3968730 decisions of which only 0.036838 were on extended
We had 3980566 decisions of which only 0.0367284 were on extended
c Switched to VSIDS.
We had 3992315 decisions of which only 0.0366204 were on extended
We had 4008241 decisions of which only 0.0364749 were on extended
We had 4022123 decisions of which only 0.036349 were on extended
We had 4036777 decisions of which only 0.0362418 were on extended
We had 4053115 decisions of which only 0.0360957 were on extended
We had 4067000 decisions of which only 0.0359725 were on extended
We had 4082390 decisions of which only 0.0358369 were on extended
c ===============================================================================
restarts                  : 3655
conflicts                 : 786819         (2160 /sec)
decisions                 : 4091933        (0.00 % random) (11232 /sec)
propagations              : 633905615      (1740046 /sec)
conflict literals         : 41952672       (60.48 % deleted)

conflicts w/ DIP found    : 225901         (28.71 % of conflicts)
conflicts w/ dangerous DIP: 0              (0.00 % of conflicts)
conflicts w/ DIP-learning : 82             (0.01 % of conflicts)
decisions on ext vars     : 1463           (0.04 % of decisions)
total ext vars            : 75          
tried delete ext vars     : 0           
deleted ext vars          : 0           
max ext vars              : 75          

Memory used               : 95.00 MB
CPU time                  : 364.304 s
DIP computation time      : 5.37547 s (1.48 % of total time)
ER_sel time               : 1.14543 s
ER_add time               : 0.000467 s
ER_delC time              : 0 s
ER_delV time              : 0 s
ER_sub time               : 0.445211 s
ER_stat time              : 0 s

SATISFIABLE
